certificates/rado_a14_c284_N39.cnf
c Rad2 upper bound instance: x1 + 14*x2 - x3 = 284, interval [1,39]
p cnf 39 216
1 11 21 0
-1 -11 -21 0
1 22 25 0
-1 -22 -25 0
1 23 39 0
-1 -23 -39 0
2 12 21 0
-2 -12 -21 0
2 22 26 0
-2 -22 -26 0
3 13 21 0
-3 -13 -21 0
3 22 27 0
-3 -22 -27 0
4 14 21 0
-4 -14 -21 0
4 22 28 0
-4 -22 -28 0
1 5 20 0
-1 -5 -20 0
5 15 21 0
-5 -15 -21 0
5 22 29 0
-5 -22 -29 0
2 6 20 0
-2 -6 -20 0
6 16 21 0
-6 -16 -21 0
6 22 30 0
-6 -22 -30 0
3 7 20 0
-3 -7 -20 0
7 17 21 0
-7 -17 -21 0
7 22 31 0
-7 -22 -31 0
4 8 20 0
-4 -8 -20 0
8 18 21 0
-8 -18 -21 0
8 22 32 0
-8 -22 -32 0
5 9 20 0
-5 -9 -20 0
9 19 21 0
-9 -19 -21 0
9 22 33 0
-9 -22 -33 0
6 10 20 0
-6 -10 -20 0
10 20 21 0
-10 -20 -21 0
10 22 34 0
-10 -22 -34 0
7 11 20 0
-7 -11 -20 0
11 21 0
-11 -21 0
11 22 35 0
-11 -22 -35 0
8 12 20 0
-8 -12 -20 0
12 21 22 0
-12 -21 -22 0
12 22 36 0
-12 -22 -36 0
9 13 20 0
-9 -13 -20 0
13 21 23 0
-13 -21 -23 0
13 22 37 0
-13 -22 -37 0
10 14 20 0
-10 -14 -20 0
14 21 24 0
-14 -21 -24 0
14 22 38 0
-14 -22 -38 0
11 15 20 0
-11 -15 -20 0
15 21 25 0
-15 -21 -25 0
15 22 39 0
-15 -22 -39 0
12 16 20 0
-12 -16 -20 0
16 21 26 0
-16 -21 -26 0
13 17 20 0
-13 -17 -20 0
17 21 27 0
-17 -21 -27 0
14 18 20 0
-14 -18 -20 0
18 21 28 0
-18 -21 -28 0
1 19 0
-1 -19 0
15 19 20 0
-15 -19 -20 0
19 21 29 0
-19 -21 -29 0
2 19 20 0
-2 -19 -20 0
16 20 0
-16 -20 0
20 21 30 0
-20 -21 -30 0
3 19 21 0
-3 -19 -21 0
17 20 21 0
-17 -20 -21 0
21 31 0
-21 -31 0
4 19 22 0
-4 -19 -22 0
18 20 22 0
-18 -20 -22 0
21 22 32 0
-21 -22 -32 0
5 19 23 0
-5 -19 -23 0
19 20 23 0
-19 -20 -23 0
21 23 33 0
-21 -23 -33 0
6 19 24 0
-6 -19 -24 0
20 24 0
-20 -24 0
21 24 34 0
-21 -24 -34 0
7 19 25 0
-7 -19 -25 0
20 21 25 0
-20 -21 -25 0
21 25 35 0
-21 -25 -35 0
8 19 26 0
-8 -19 -26 0
20 22 26 0
-20 -22 -26 0
21 26 36 0
-21 -26 -36 0
9 19 27 0
-9 -19 -27 0
20 23 27 0
-20 -23 -27 0
21 27 37 0
-21 -27 -37 0
10 19 28 0
-10 -19 -28 0
20 24 28 0
-20 -24 -28 0
21 28 38 0
-21 -28 -38 0
11 19 29 0
-11 -19 -29 0
20 25 29 0
-20 -25 -29 0
21 29 39 0
-21 -29 -39 0
12 19 30 0
-12 -19 -30 0
20 26 30 0
-20 -26 -30 0
13 19 31 0
-13 -19 -31 0
20 27 31 0
-20 -27 -31 0
14 19 32 0
-14 -19 -32 0
20 28 32 0
-20 -28 -32 0
1 18 33 0
-1 -18 -33 0
15 19 33 0
-15 -19 -33 0
20 29 33 0
-20 -29 -33 0
2 18 34 0
-2 -18 -34 0
16 19 34 0
-16 -19 -34 0
20 30 34 0
-20 -30 -34 0
3 18 35 0
-3 -18 -35 0
17 19 35 0
-17 -19 -35 0
20 31 35 0
-20 -31 -35 0
4 18 36 0
-4 -18 -36 0
18 19 36 0
-18 -19 -36 0
20 32 36 0
-20 -32 -36 0
5 18 37 0
-5 -18 -37 0
19 37 0
-19 -37 0
20 33 37 0
-20 -33 -37 0
6 18 38 0
-6 -18 -38 0
19 20 38 0
-19 -20 -38 0
20 34 38 0
-20 -34 -38 0
7 18 39 0
-7 -18 -39 0
19 21 39 0
-19 -21 -39 0
20 35 39 0
-20 -35 -39 0
