certificates/rado_a14_c284_N39.drat
19 -39 0
-39 0
-19 0
1 0
37 0
21 0
-11 0
-31 0
-27 0
29 0
13 0
20 0
9 0
-33 0
-3 0
0
